InboundTrucks  = 8;
OutboundTrucks = 5;
InboundDoors   = 4;
OutboundDoors  = 4;
ReleaseTime    = [81,14,3,94,35,31,28,17];
UnloadTime     = [33,32,43,10,11,14,30,36];
LoadTime       = [30,28,13,19,10];
TransferTime   = [| 48,47,34,50,0 | 0,0,0,28,0 | 0,0,0,20,27 | 0,0,44,0,50 | 0,13,45,20,46 | 0,35,0,0,45 | 0,0,33,0,44 | 13,0,0,48,39 |];
